(declare-const _tmp__init Int)
(declare-const x_init Int)
(declare-const c_0 Int)
(declare-const c_1 Int)
(declare-const c_2 Int)
(declare-const c_3 Int)
(declare-const c_4 Int)
(declare-const c_5 Int)
(declare-const c_6 Int)
(declare-const c_7 Int)
(declare-const c_8 Int)
(declare-const c_9 Int)
(declare-const c_10 Int)
(declare-const c_11 Int)
(declare-const c_12 Int)
(declare-const c_13 Int)
(assert (< c_8 0))
(assert (and (>= (+ (* (- 1) _tmp__init ) (* 1 c_9 ) ) 0) (>= (+ (* 1 _tmp__init ) (* (- 1) c_9 ) ) 0) (>= (+ (* 1 c_10 ) (* (- 1) x_init ) ) 0) (>= (+ (* (- 1) c_10 ) (* 1 x_init ) ) 0) ))
(assert (forall ((_tmp_ Real) (x Real) (_r_0 Real) (_r_1 Real) (_r_2 Real) (_r_3 Real) ) (=> (and (>= (+ (* (- 1) _tmp_ ) (* 1 c_9 ) ) 0) (>= (+ (* 1 _tmp_ ) (* (- 1) c_9 ) ) 0) (>= (+ (* 1 c_10 ) (* (- 1) x ) ) 0) (>= (+ (* (- 1) c_10 ) (* 1 x ) ) 0) ) (>= (+ (* 1 _tmp_ c_12 ) (* 1 c_11 ) (* 1 c_13 x ) ) 0) )))
(assert (forall ((_tmp_ Real) (x Real) (_r_0 Real) (_r_1 Real) (_r_2 Real) (_r_3 Real) ) (=> (and (>= (* (- 1) _r_3 ) 0) (>= (+ (* 1 _r_3 ) (* (- 1) _tmp_ c_6 ) (* (- 1) c_7 x ) ) 0) (>= (+ (* (- 1) _r_3 ) (* 1 _tmp_ c_6 ) (* 1 c_7 x ) ) 0) (>= (* 1 x ) 0) (>= (+ (* 1 _tmp_ c_12 ) (* 1 c_11 ) (* 1 c_13 x ) ) 0) ) (>= (+ (* 1 _r_3 c_12 ) (* 1 c_11 ) (* 1 c_13 ) (* 1 c_13 x ) ) 0) )))
(assert (forall ((_tmp_ Real) (x Real) (_r_0 Real) (_r_1 Real) (_r_2 Real) (_r_3 Real) ) (=> (and (>= (* (- 1) _r_2 ) 0) (>= (+ (* 1 _r_2 ) (* (- 1) _r_3 c_4 ) (* (- 1) c_5 x ) ) 0) (>= (+ (* (- 1) _r_2 ) (* 1 _r_3 c_4 ) (* 1 c_5 x ) ) 0) (>= (+ (* (- 1) 1) (* 1 _r_3 ) ) 0) (>= (+ (* 1 _r_3 ) (* (- 1) _tmp_ c_6 ) (* (- 1) c_7 x ) ) 0) (>= (+ (* (- 1) _r_3 ) (* 1 _tmp_ c_6 ) (* 1 c_7 x ) ) 0) (>= (* 1 x ) 0) (>= (+ (* 1 _tmp_ c_12 ) (* 1 c_11 ) (* 1 c_13 x ) ) 0) ) (>= (+ (* 1 _r_2 c_12 ) (* 1 c_11 ) (* 2 c_13 ) (* 1 c_13 x ) ) 0) )))
(assert (forall ((_tmp_ Real) (x Real) (_r_0 Real) (_r_1 Real) (_r_2 Real) (_r_3 Real) ) (=> (and (>= (* (- 1) _r_1 ) 0) (>= (+ (* 1 _r_1 ) (* (- 1) _r_2 c_2 ) (* (- 1) c_3 x ) ) 0) (>= (+ (* (- 1) _r_1 ) (* 1 _r_2 c_2 ) (* 1 c_3 x ) ) 0) (>= (+ (* (- 1) 1) (* 1 _r_2 ) ) 0) (>= (+ (* 1 _r_2 ) (* (- 1) _r_3 c_4 ) (* (- 1) c_5 x ) ) 0) (>= (+ (* (- 1) _r_2 ) (* 1 _r_3 c_4 ) (* 1 c_5 x ) ) 0) (>= (+ (* (- 1) 1) (* 1 _r_3 ) ) 0) (>= (+ (* 1 _r_3 ) (* (- 1) _tmp_ c_6 ) (* (- 1) c_7 x ) ) 0) (>= (+ (* (- 1) _r_3 ) (* 1 _tmp_ c_6 ) (* 1 c_7 x ) ) 0) (>= (* 1 x ) 0) (>= (+ (* 1 _tmp_ c_12 ) (* 1 c_11 ) (* 1 c_13 x ) ) 0) ) (>= (+ (* 1 _r_1 c_12 ) (* 1 c_11 ) (* 3 c_13 ) (* 1 c_13 x ) ) 0) )))
(assert (forall ((_tmp_ Real) (x Real) (_r_0 Real) (_r_1 Real) (_r_2 Real) (_r_3 Real) ) (=> (and (>= (* (- 1) _r_0 ) 0) (>= (+ (* 1 _r_0 ) (* (- 1) _r_1 c_0 ) (* (- 1) c_1 x ) ) 0) (>= (+ (* (- 1) _r_0 ) (* 1 _r_1 c_0 ) (* 1 c_1 x ) ) 0) (>= (+ (* (- 1) 1) (* 1 _r_1 ) ) 0) (>= (+ (* 1 _r_1 ) (* (- 1) _r_2 c_2 ) (* (- 1) c_3 x ) ) 0) (>= (+ (* (- 1) _r_1 ) (* 1 _r_2 c_2 ) (* 1 c_3 x ) ) 0) (>= (+ (* (- 1) 1) (* 1 _r_2 ) ) 0) (>= (+ (* 1 _r_2 ) (* (- 1) _r_3 c_4 ) (* (- 1) c_5 x ) ) 0) (>= (+ (* (- 1) _r_2 ) (* 1 _r_3 c_4 ) (* 1 c_5 x ) ) 0) (>= (+ (* (- 1) 1) (* 1 _r_3 ) ) 0) (>= (+ (* 1 _r_3 ) (* (- 1) _tmp_ c_6 ) (* (- 1) c_7 x ) ) 0) (>= (+ (* (- 1) _r_3 ) (* 1 _tmp_ c_6 ) (* 1 c_7 x ) ) 0) (>= (* 1 x ) 0) (>= (+ (* 1 _tmp_ c_12 ) (* 1 c_11 ) (* 1 c_13 x ) ) 0) ) (>= (+ (* 1 _r_0 c_12 ) (* 1 c_11 ) (* 4 c_13 ) (* 1 c_13 x ) ) 0) )))
(assert (forall ((_tmp_ Real) (x Real) (_r_0 Real) (_r_1 Real) (_r_2 Real) (_r_3 Real) ) (=> (and (>= (+ (* (- 1) 1) (* 1 _r_0 ) ) 0) (>= (+ (* 1 _r_0 ) (* (- 1) _r_1 c_0 ) (* (- 1) c_1 x ) ) 0) (>= (+ (* (- 1) _r_0 ) (* 1 _r_1 c_0 ) (* 1 c_1 x ) ) 0) (>= (+ (* (- 1) 1) (* 1 _r_1 ) ) 0) (>= (+ (* 1 _r_1 ) (* (- 1) _r_2 c_2 ) (* (- 1) c_3 x ) ) 0) (>= (+ (* (- 1) _r_1 ) (* 1 _r_2 c_2 ) (* 1 c_3 x ) ) 0) (>= (+ (* (- 1) 1) (* 1 _r_2 ) ) 0) (>= (+ (* 1 _r_2 ) (* (- 1) _r_3 c_4 ) (* (- 1) c_5 x ) ) 0) (>= (+ (* (- 1) _r_2 ) (* 1 _r_3 c_4 ) (* 1 c_5 x ) ) 0) (>= (+ (* (- 1) 1) (* 1 _r_3 ) ) 0) (>= (+ (* 1 _r_3 ) (* (- 1) _tmp_ c_6 ) (* (- 1) c_7 x ) ) 0) (>= (+ (* (- 1) _r_3 ) (* 1 _tmp_ c_6 ) (* 1 c_7 x ) ) 0) (>= (* 1 x ) 0) (>= (+ (* 1 _tmp_ c_12 ) (* 1 c_11 ) (* 1 c_13 x ) ) 0) ) (>= (+ (* 1 _r_0 c_12 ) (* 1 c_11 ) (* (- 1) c_13 ) ) 0) )))
(assert (forall ((_tmp_ Real) (x Real) (_r_0 Real) (_r_1 Real) (_r_2 Real) (_r_3 Real) ) (=> (and (>= (+ (* (- 1) 1) (* (- 1) x ) ) 0) (>= (+ (* 1 _tmp_ c_12 ) (* 1 c_11 ) (* 1 c_13 x ) ) 0) ) (>= (* 1 c_8 ) 0) )))
(check-sat)
(get-model)

